       H     B     B     E     E     L     V    
09                00                 00         
09                04                 15         
09  10   14  17V 55  07  22   13  
09  18   22  34                30          
09  28   32                                     
09  37   42  49V 24  32  45   40  
09  47   52                                     
09  52V        04L 41   47  00  59   
10  04   09                                     
10  10   14  19V 55  02  15   11  
10  29   34  34L               30          
10  35   40  49V 23  32  45   40  
10  46   50  04L               00          
11  02   07                                     
11  08   12  19V 55  02  15   11  
11  29   34  34L               30          
11  35   40  49V 23  32  45   40  
11  46   50  04L               00          
12  02   07                                     
12  08   12  19V                      11  
12  29   34                                     
12  35   40                                     
                                                        
